# Objective value = 1.8874370997780870e+03
x[0] 0
x[1] 1
x[2] 1
x[3] 0
x[4] 1
x[5] 1
x[6] 1
x[7] 1
x[8] 0
x[9] 0
x[10] 1
x[11] 1
x[12] 1
x[13] 1
x[14] 1
x[15] 1
x[16] 1
x[17] 0
x[18] 0
x[19] 0
x[20] 1
x[21] 0
x[22] 1
x[23] 1
x[24] 0
x[25] 0
x[26] 0
x[27] 1
x[28] 1
x[29] 1
x[30] 1
x[31] 0
x[32] 1
x[33] 0
x[34] 0
x[35] 0
x[36] 0
x[37] 1
x[38] 1
x[39] 1
x[40] 1
x[41] 1
x[42] 1
x[43] 1
x[44] 1
x[45] 0
x[46] 1
x[47] 0
x[48] 0
x[49] 1
x[50] 1
x[51] 0
x[52] 1
x[53] 1
x[54] 0
x[55] 0
x[56] 1
x[57] 1
x[58] 1
x[59] 0
x[60] 1
x[61] 1
x[62] 1
x[63] 0
x[64] 1
x[65] 1
x[66] 1
x[67] 0
x[68] 0
x[69] 0
x[70] 0
x[71] 1
x[72] 0
x[73] 0
x[74] 1
x[75] 1
x[76] 1
x[77] 0
x[78] 0
x[79] 1
x[80] 0
x[81] 0
x[82] 0
x[83] 0
x[84] 1
x[85] 1
x[86] 1
x[87] 0
x[88] 1
x[89] 1
x[90] 1
x[91] 0
x[92] 0
x[93] 1
x[94] 1
x[95] 1
x[96] 1
x[97] 1
x[98] 0
x[99] 0
x[100] 0
x[101] 0
x[102] 1
x[103] 1
x[104] 0
x[105] 0
x[106] 1
x[107] 1
x[108] 0
x[109] 1
x[110] 1
x[111] 0
x[112] 0
x[113] 1
x[114] 1
x[115] 0
x[116] 0
x[117] 1
x[118] 1
x[119] 0
x[120] 0
x[121] 0
x[122] 1
x[123] 1
x[124] 0
x[125] 1
x[126] 1
x[127] 0
x[128] 1
x[129] 1
x[130] 1
x[131] 1
x[132] 1
x[133] 0
x[134] 0
x[135] 0
x[136] 1
x[137] 0
x[138] 0
x[139] 1
x[140] 0
x[141] 1
x[142] 0
x[143] 1
x[144] 1
x[145] 1
x[146] 1
x[147] 1
x[148] 0
x[149] 0
x[150] 0
x[151] 1
x[152] 0
x[153] 0
x[154] 0
x[155] 0
x[156] 0
x[157] 0
x[158] 1
x[159] 1
x[160] 0
x[161] 1
x[162] 0
x[163] 0
x[164] 1
x[165] 1
x[166] 1
x[167] 0
x[168] 1
x[169] 0
x[170] 1
x[171] 1
x[172] 0
x[173] 1
x[174] 0
x[175] 1
x[176] 1
x[177] 0
x[178] 0
x[179] 0
x[180] 1
x[181] 0
x[182] 0
x[183] 0
x[184] 0
x[185] 1
x[186] 1
x[187] 0
x[188] 1
x[189] 0
x[190] 1
x[191] 1
x[192] 0
x[193] 1
x[194] 1
x[195] 0
x[196] 1
x[197] 0
x[198] 0
x[199] 0
x[200] 0
x[201] 0
x[202] 0
x[203] 0
x[204] 1
x[205] 1
x[206] 1
x[207] 1
x[208] 1
x[209] 1
x[210] 0
x[211] 1
x[212] 1
x[213] 1
x[214] 0
x[215] 0
x[216] 0
x[217] 1
x[218] 0
x[219] 0
x[220] 0
x[221] 0
x[222] 0
x[223] 0
x[224] 0
x[225] 0
x[226] 1
x[227] 1
x[228] 1
x[229] 0
x[230] 1
x[231] 0
x[232] 1
x[233] 1
x[234] 1
x[235] 1
x[236] 1
x[237] 0
x[238] 0
x[239] 0
x[240] 0
x[241] 0
x[242] 1
x[243] 1
x[244] 1
x[245] 1
x[246] 1
x[247] 1
x[248] 0
x[249] 1
x[250] 1
x[251] 0
x[252] 0
x[253] 0
x[254] 1
x[255] 0
x[256] 0
x[257] 0
x[258] 1
x[259] 0
x[260] 1
x[261] 1
x[262] 0
x[263] 1
x[264] 0
x[265] 1
x[266] 1
x[267] 1
x[268] 0
x[269] 1
x[270] 0
x[271] 1
x[272] 0
x[273] 1
x[274] 0
x[275] 1
x[276] 1
x[277] 1
x[278] 0
x[279] 1
x[280] 1
x[281] 1
x[282] 0
x[283] 0
x[284] 1
x[285] 0
x[286] 1
x[287] 1
x[288] 1
x[289] 1
x[290] 0
x[291] 0
x[292] 0
x[293] 0
x[294] 1
x[295] 0
x[296] 0
x[297] 1
x[298] 0
x[299] 1
x[300] 1
x[301] 1
x[302] 1
x[303] 1
x[304] 1
x[305] 1
x[306] 1
x[307] 0
x[308] 0
x[309] 0
x[310] 0
x[311] 1
x[312] 0
x[313] 1
x[314] 0
x[315] 1
x[316] 1
x[317] 1
x[318] 0
x[319] 0
x[320] 1
x[321] 1
x[322] 1
x[323] 1
x[324] 0
x[325] 1
x[326] 1
x[327] 0
x[328] 1
x[329] 1
x[330] 1
x[331] 0
x[332] 0
x[333] 1
x[334] 1
x[335] 1
x[336] 1
x[337] 0
x[338] 1
x[339] 1
x[340] 1
x[341] 1
x[342] 1
x[343] 1
x[344] 1
x[345] 0
x[346] 0
x[347] 1
x[348] 1
x[349] 0
x[350] 1
x[351] 1
x[352] 1
x[353] 1
x[354] 1
x[355] 0
x[356] 0
x[357] 1
x[358] 0
x[359] 0
x[360] 0
x[361] 1
x[362] 0
x[363] 1
x[364] 1
x[365] 1
x[366] 0
x[367] 1
x[368] 0
x[369] 1
x[370] 1
x[371] 0
x[372] 1
x[373] 1
x[374] 0
x[375] 1
x[376] 0
x[377] 0
x[378] 0
x[379] 0
x[380] 0
x[381] 1
x[382] 0
x[383] 1
x[384] 0
x[385] 0
x[386] 0
x[387] 0
x[388] 1
x[389] 0
x[390] 1
x[391] 1
x[392] 1
x[393] 1
x[394] 1
x[395] 0
x[396] 1
x[397] 0
x[398] 1
x[399] 0
x[400] 1
x[401] 1
x[402] 0
x[403] 0
x[404] 0
x[405] 1
x[406] 0
x[407] 0
x[408] 0
x[409] 1
x[410] 0
x[411] 1
x[412] 1
x[413] 1
x[414] 0
x[415] 1
x[416] 0
x[417] 0
x[418] 0
x[419] 0
x[420] 0
x[421] 1
x[422] 1
x[423] 1
x[424] 1
x[425] 1
x[426] 1
x[427] 1
x[428] 1
x[429] 0
x[430] 0
x[431] 0
x[432] 1
x[433] 1
x[434] 1
x[435] 0
x[436] 1
x[437] 1
x[438] 1
x[439] 1
x[440] 0
x[441] 1
x[442] 1
x[443] 0
x[444] 0
x[445] 1
x[446] 0
x[447] 0
x[448] 1
x[449] 0
x[450] 1
x[451] 0
x[452] 0
x[453] 1
x[454] 1
x[455] 1
x[456] 0
x[457] 0
x[458] 0
x[459] 1
x[460] 0
x[461] 1
x[462] 1
x[463] 1
x[464] 0
x[465] 0
x[466] 1
x[467] 0
x[468] 1
x[469] 0
x[470] 1
x[471] 0
x[472] 1
x[473] 1
x[474] 0
x[475] 1
x[476] 0
x[477] 0
x[478] 1
x[479] 0
x[480] 1
x[481] 1
x[482] 1
x[483] 1
x[484] 0
x[485] 0
x[486] 0
x[487] 1
x[488] 0
x[489] 1
x[490] 0
x[491] 1
x[492] 1
x[493] 1
x[494] 0
x[495] 1
x[496] 1
x[497] 0
x[498] 1
x[499] 1
x[500] 1
x[501] 0
x[502] 1
x[503] 1
x[504] 0
x[505] 0
x[506] 0
x[507] 1
x[508] 0
x[509] 1
x[510] 0
x[511] 1
x[512] 0
x[513] 0
x[514] 1
x[515] 0
x[516] 0
x[517] 1
x[518] 1
x[519] 0
x[520] 0
x[521] 1
x[522] 1
x[523] 0
x[524] 1
x[525] 1
x[526] 0
x[527] 0
x[528] 1
x[529] 0
x[530] 1
x[531] 1
x[532] 0
x[533] 1
x[534] 1
x[535] 0
x[536] 0
x[537] 0
x[538] 0
x[539] 1
x[540] 1
x[541] 0
x[542] 0
x[543] 1
x[544] 1
x[545] 0
x[546] 1
x[547] 1
x[548] 1
x[549] 0
x[550] 1
x[551] 1
x[552] 0
x[553] 1
x[554] 1
x[555] 0
x[556] 0
x[557] 1
x[558] 1
x[559] 0
x[560] 0
x[561] 0
x[562] 1
x[563] 0
x[564] 1
x[565] 1
x[566] 1
x[567] 0
x[568] 1
x[569] 1
x[570] 1
x[571] 1
x[572] 0
x[573] 0
x[574] 0
x[575] 1
x[576] 0
x[577] 1
x[578] 1
x[579] 0
x[580] 1
x[581] 1
x[582] 1
x[583] 1
x[584] 1
x[585] 1
x[586] 1
x[587] 1
x[588] 0
x[589] 0
x[590] 0
x[591] 1
x[592] 0
x[593] 1
x[594] 0
x[595] 0
x[596] 1
x[597] 1
x[598] 0
x[599] 0
x[600] 1
x[601] 1
x[602] 0
x[603] 0
x[604] 1
x[605] 0
x[606] 1
x[607] 1
x[608] 1
x[609] 1
x[610] 1
x[611] 0
x[612] 1
x[613] 0
x[614] 1
x[615] 0
x[616] 0
x[617] 0
x[618] 1
x[619] 0
x[620] 1
x[621] 1
x[622] 0
x[623] 1
x[624] 0
x[625] 1
x[626] 0
x[627] 1
x[628] 1
x[629] 1
x[630] 0
x[631] 1
x[632] 0
x[633] 0
x[634] 0
x[635] 0
x[636] 1
x[637] 0
x[638] 1
x[639] 0
x[640] 1
x[641] 0
x[642] 0
x[643] 1
x[644] 1
x[645] 1
x[646] 1
x[647] 0
x[648] 0
x[649] 0
x[650] 1
x[651] 1
x[652] 0
x[653] 0
x[654] 0
x[655] 0
x[656] 1
x[657] 1
x[658] 1
x[659] 0
x[660] 1
x[661] 1
x[662] 0
x[663] 1
x[664] 1
x[665] 1
x[666] 1
x[667] 1
x[668] 0
x[669] 1
x[670] 1
x[671] 0
x[672] 1
x[673] 0
x[674] 1
x[675] 1
x[676] 0
x[677] 0
x[678] 0
x[679] 1
x[680] 1
x[681] 0
x[682] 1
x[683] 0
x[684] 1
x[685] 1
x[686] 1
x[687] 0
x[688] 1
x[689] 0
x[690] 0
x[691] 1
x[692] 0
x[693] 0
x[694] 1
x[695] 1
x[696] 1
x[697] 1
x[698] 0
x[699] 1
x[700] 1
x[701] 0
x[702] 0
x[703] 1
x[704] 1
x[705] 1
x[706] 0
x[707] 0
x[708] 1
x[709] 1
x[710] 0
x[711] 1
x[712] 0
x[713] 0
x[714] 1
x[715] 0
x[716] 1
x[717] 1
x[718] 0
x[719] 0
x[720] 1
x[721] 1
x[722] 0
x[723] 1
x[724] 0
x[725] 0
x[726] 1
x[727] 1
x[728] 0
x[729] 0
x[730] 1
x[731] 1
x[732] 1
x[733] 1
x[734] 1
x[735] 1
x[736] 1
x[737] 0
x[738] 1
x[739] 0
x[740] 1
x[741] 1
x[742] 0
x[743] 1
x[744] 1
x[745] 1
x[746] 1
x[747] 1
x[748] 1
x[749] 0
x[750] 0
x[751] 1
x[752] 0
x[753] 0
x[754] 0
x[755] 1
x[756] 0
x[757] 1
x[758] 1
x[759] 1
x[760] 0
x[761] 0
x[762] 0
x[763] 1
x[764] 1
x[765] 1
x[766] 1
x[767] 0
x[768] 0
x[769] 0
x[770] 0
x[771] 1
x[772] 1
x[773] 1
x[774] 1
x[775] 1
x[776] 0
x[777] 1
x[778] 1
x[779] 1
x[780] 1
x[781] 1
x[782] 1
x[783] 1
x[784] 0
x[785] 0
x[786] 1
x[787] 1
x[788] 0
x[789] 1
x[790] 0
x[791] 1
x[792] 1
x[793] 0
x[794] 1
x[795] 1
x[796] 1
x[797] 1
x[798] 0
x[799] 0
x[800] 0
x[801] 1
x[802] 0
x[803] 0
x[804] 1
x[805] 1
x[806] 0
x[807] 0
x[808] 1
x[809] 1
x[810] 0
x[811] 1
x[812] 0
x[813] 0
x[814] 0
x[815] 1
x[816] 0
x[817] 0
x[818] 1
x[819] 1
x[820] 1
x[821] 0
x[822] 1
x[823] 1
x[824] 1
x[825] 1
x[826] 1
x[827] 0
x[828] 1
x[829] 0
x[830] 1
x[831] 1
x[832] 0
x[833] 0
x[834] 0
x[835] 1
x[836] 1
x[837] 1
x[838] 1
x[839] 1
x[840] 1
x[841] 0
x[842] 0
x[843] 1
x[844] 1
x[845] 0
x[846] 1
x[847] 0
x[848] 0
x[849] 0
x[850] 1
x[851] 1
x[852] 1
x[853] 1
x[854] 1
x[855] 1
x[856] 1
x[857] 1
x[858] 1
x[859] 1
x[860] 0
x[861] 0
x[862] 0
x[863] 1
x[864] 0
x[865] 1
x[866] 0
x[867] 1
x[868] 0
x[869] 1
x[870] 0
x[871] 0
x[872] 0
x[873] 1
x[874] 0
x[875] 1
x[876] 0
x[877] 0
x[878] 1
x[879] 0
x[880] 1
x[881] 0
x[882] 1
x[883] 1
x[884] 0
x[885] 1
x[886] 1
x[887] 0
x[888] 1
x[889] 1
x[890] 0
x[891] 1
x[892] 0
x[893] 0
x[894] 1
x[895] 1
x[896] 1
x[897] 1
x[898] 1
x[899] 1
x[900] 1
x[901] 1
x[902] 1
x[903] 1
x[904] 0
x[905] 1
x[906] 0
x[907] 0
x[908] 1
x[909] 0
x[910] 1
x[911] 1
x[912] 0
x[913] 0
x[914] 0
x[915] 0
x[916] 0
x[917] 1
x[918] 0
x[919] 1
x[920] 1
x[921] 1
x[922] 0
x[923] 0
x[924] 1
x[925] 0
x[926] 1
x[927] 0
x[928] 0
x[929] 0
x[930] 0
x[931] 0
x[932] 1
x[933] 0
x[934] 1
x[935] 1
x[936] 0
x[937] 0
x[938] 0
x[939] 1
x[940] 0
x[941] 1
x[942] 0
x[943] 1
x[944] 0
x[945] 1
x[946] 1
x[947] 0
x[948] 0
x[949] 1
x[950] 0
x[951] 1
x[952] 1
x[953] 1
x[954] 1
x[955] 1
x[956] 0
x[957] 1
x[958] 0
x[959] 0
x[960] 1
x[961] 0
x[962] 1
x[963] 0
x[964] 1
x[965] 1
x[966] 0
x[967] 1
x[968] 0
x[969] 1
x[970] 0
x[971] 0
x[972] 1
x[973] 1
x[974] 1
x[975] 1
x[976] 0
x[977] 1
x[978] 0
x[979] 1
x[980] 0
x[981] 1
x[982] 1
x[983] 1
x[984] 0
x[985] 0
x[986] 1
x[987] 1
x[988] 0
x[989] 1
x[990] 1
x[991] 1
x[992] 1
x[993] 1
x[994] 0
x[995] 0
x[996] 0
x[997] 1
x[998] 0
x[999] 1
